# Node Net
281   1
2381   1
 67   1
4891   1
561   2
4833   2
4837   2
 35   2
1401   3
4850   3
4862   3
1471   4
4868   4
 39   4
 45   5
141   5
3290   5
4761   6
 14   6
  7   6
4843   7
4690   7
 25   7
 37   8
980   8
3641   8
4849   9
4271   9
  2   9
700  10
1820  10
 40  10
4411  11
 18  11
4872  12
4130  12
 68  13
4880  13
 70  14
2801  14
 15  15
 65  15
3781  16
4830  16
